NAME : area_scanning
COMMENT : Used for Dubins Area Scanning
TYPE : ATSP
DIMENSION : 8 
EDGE_WEIGHT_TYPE : EXPLICIT
EDGE_WEIGHT_FORMAT : FULL_MATRIX
EDGE_WEIGHT_SECTION
10999 446 949 1442 1638 1236 883 737
1446 10999 503 995 1255 921 737 864
1949 1503 10999 492 900 756 875 1210
2442 1995 1492 10999 758 901 1222 1636
2638 2255 900 758 10999 1483 1979 1472
2236 921 756 901 483 10999 1496 989
883 737 875 1222 979 496 10999 493
737 864 1210 1636 1472 989 493 9999
EOF